WARNING: for repeatability, setting FPU to use double precision
============================[ Problem Statistics ]=============================
|                                                                             |
|  Number of variables:           100                                         |
|  Number of clauses:             449                                         |
|  Parse time:                   0.00 s                                       |
|  Eliminated clauses:           0.00 Mb                                      |
|  Simplification time:          0.00 s                                       |
|                                                                             |
============================[ Search Statistics ]==============================
| Conflicts |          ORIGINAL         |          LEARNT          | Progress |
|           |    Vars  Clauses Literals |    Limit  Clauses Lit/Cl |          |
===============================================================================
|       100 |      97      439     1336 |      160      100      7 |  0.010 % |
|       250 |      97      439     1336 |      177      166      6 |  0.010 % |
===============================================================================
restarts              : 3
conflicts             : 318            (87076 /sec)
decisions             : 399            (0.00 % random) (109255 /sec)
propagations          : 7453           (2040800 /sec)
conflict literals     : 2138           (17.61 % deleted)
Memory used           : 13.00 MB
CPU time              : 0.003652 s

SATISFIABLE
